10 42
1 2 77
1 3 2
1 4 4
1 5 72
1 6 20
1 7 44
1 8 95
1 9 72
1 10 69
2 3 17
2 4 68
2 5 23
2 6 89
2 7 61
2 8 19
2 9 25
2 10 48
3 4 33
3 5 26
3 6 18
3 7 98
3 8 22
3 9 96
3 10 84
4 5 37
4 6 40
4 7 61
4 8 74
4 10 96
5 6 19
5 8 74
5 9 2
5 10 44
6 7 61
6 8 62
6 9 79
6 10 70
7 8 24
7 9 86
8 9 26
8 10 42
9 10 4
